sat
(:elim-unconstrained  81
 :max-memory          20.70
 :memory              19.21
 :nlsat-arith-var     169
 :nlsat-atoms         1348
 :nlsat-bool-var      284
 :nlsat-clauses       419
 :nlsat-conflicts     5277
 :nlsat-decisions     7810
 :nlsat-propagations  40277
 :nlsat-stages        10918
 :num-allocs          4406461
 :rlimit-count        2178008
 :solve-eqs-elim-vars 263
 :solve-eqs-steps     2006
 :time                0.80
 :total-time          0.81)
